NAME : zqloutput/eax-hard-simple-rescaleandround/50-2.tsp
TYPE : TSP
DIMENSION : 50
EDGE_WEIGHT_TYPE : EUC_2D
NODE_COORD_SECTION
1 348317 177713
2 188752 829109
3 4954 606103
4 140706 206640
5 688894 73544
6 583852 836935
7 904750 137290
8 874697 213444
9 454332 79482
10 425372 987538
11 664863 766446
12 860327 166474
13 266259 831997
14 951834 972223
15 543104 475452
16 144205 354561
17 653531 510053
18 58130 452352
19 43378 259771
20 358127 841197
21 580139 928662
22 527647 130453
23 892252 573671
24 583518 736698
25 244166 826397
26 890400 649837
27 487452 288226
28 681742 122643
29 16508 494626
30 195727 425383
31 168065 371594
32 153682 740461
33 549162 722481
34 742931 446957
35 371706 278734
36 367242 275250
37 622483 803084
38 330202 655473
39 234525 309084
40 441352 963737
41 413232 272087
42 961236 299221
43 901564 813339
44 90259 996310
45 25486 856178
46 749809 661276
47 296105 126060
48 260655 730086
49 884140 515216
50 566053 290318
EOF
